problems/csplib-prob056/sonet-models/noch/O2/minion/model_2_1-s3ring13-solution000001.eprime-solution
language ESSENCE' 1.0

letting network_ExplicitWithFlagsR6_Flags be [1, 1, 1, 1, 1, 1, 1; int(1..7)]
letting network_ExplicitWithFlagsR6_Values_ExplicitVarSizeWithDummy be
        [[1, 2, 3, 4, 5; int(1..5)], [1, 2, 3, 4, 6; int(1..5)], [1, 2, 3, 4, 7; int(1..5)], [1, 2, 3, 4, 8; int(1..5)],
         [1, 2, 3, 9, 10; int(1..5)], [4, 9, 10, 11, 12; int(1..5)], [5, 6, 7, 9, 13; int(1..5)]; int(1..7)]
