problems/csplib-prob056/sonet-models/noch/O2/minion/model_2_1-s3ring13-solution000001.solution
language Essence 1.3

letting network be
        mset({1, 2, 3, 4, 5}, {1, 2, 3, 4, 6}, {1, 2, 3, 4, 7}, {1, 2, 3, 4, 8}, {1, 2, 3, 9, 10}, {4, 9, 10, 11, 12},
             {5, 6, 7, 9, 13})
$ Here is a simple "visualisation" for the value above.
$  1  2  3  4  5
$  1  2  3  4  6
$  1  2  3  4  7
$  1  2  3  4  8
$  1  2  3  9 10
$  4  9 10 11 12
$  5  6  7  9 13

